2
100 2
59
20 1 2
21 1 1
22 1 5
24 1 1
26 1 2
27 1 1
28 1 1
29 1 1
35 1 1
36 1 1
37 1 1
38 1 2
39 1 2
41 1 1
45 1 1
47 1 2
48 1 3
49 1 1
50 1 1
51 1 1
53 1 1
54 1 1
55 1 1
56 1 1
57 1 2
58 1 1
59 1 1
60 1 1
61 1 1
63 1 4
64 1 4
65 1 3
67 1 2
68 1 2
70 1 3
71 1 1
72 1 3
73 1 2
74 1 1
76 1 2
77 1 1
78 1 2
79 1 1
80 1 1
81 1 1
83 1 3
84 1 1
85 1 1
86 1 1
87 1 2
88 1 1
89 1 1
90 1 3
91 1 2
92 1 3
94 1 1
95 1 1
97 1 2
99 1 4
